NAME : portcgen-28-21
COMMENT : portcgen N=28, seed=21
TYPE : TSP
DIMENSION : 28
EDGE_WEIGHT_TYPE : EUC_2D
NODE_COORD_SECTION
1 -127715 93313
2 -127583 180511
3 29084 172770
4 9532 127053
5 55200 -65056
6 -212099 284733
7 126286 -45477
8 -124108 128522
9 -49177 42425
10 131830 239179
11 133989 -398823
12 78781 -58915
13 167698 -469109
14 230107 -130474
15 507185 254122
16 300542 -102590
17 282905 17857
18 -294685 -67333
19 74442 -2048
20 -221877 76489
21 -70945 -61045
22 285845 204309
23 -84666 -313955
24 161552 -51485
25 167939 -234706
26 -225677 -172647
27 8159 -109354
28 -175004 -155827
